\Generated by Cardinal Operations

Maximize
   1443.6 x_('B','A')9:05_f + 424.67 x_('B','A')9:05_l 
   + 1479.64 x_('B','A')12:25_f + 470.28 x_('B','A')12:25_l 
   + 1663.16 x_('A','C')13:05_f + 565.96 x_('A','C')13:05_l 
   + 1455.47 x_('A','B')22:45_f + 436.14 x_('A','B')22:45_l 
   + 1489.26 x_('B','C')9:05_f + 443.62 x_('B','C')9:05_l 
   + 1544.13 x_('B','C')15:40_f + 483.3 x_('B','C')15:40_l 
Subject To
 capacity_constraint_('B','A')9:05: 1.2 x_('B','A')9:05_f 
   + x_('B','A')9:05_l <= 187
 balance_constraint_('B','A')9:05: 3.7 x_('B','A')9:05_0 
   + 0.9 x_('B','A')9:05_f + 0.9 x_('B','A')9:05_l <= 166.14
 scale_constraint_('B','A')9:05_f: 1.864 x_('B','A')9:05_0 
   - 2 x_('B','A')9:05_f >= 0
 scale_constraint_('B','A')9:05_l: x_('B','A')9:05_0 - 2 x_('B','A')9:05_l 
   >= 0
 capacity_constraint_('B','A')12:25: 1.2 x_('B','A')12:25_f 
   + x_('B','A')12:25_l <= 187
 balance_constraint_('B','A')12:25: 3.7 x_('B','A')12:25_0 
   + 0.9 x_('B','A')12:25_f + 0.9 x_('B','A')12:25_l <= 127.15
 scale_constraint_('B','A')12:25_f: 3.079 x_('B','A')12:25_0 
   - 2 x_('B','A')12:25_f >= 0
 scale_constraint_('B','A')12:25_l: 1.652 x_('B','A')12:25_0 
   - 2 x_('B','A')12:25_l >= 0
 capacity_constraint_('A','C')13:05: 1.2 x_('A','C')13:05_f 
   + x_('A','C')13:05_l <= 187
 balance_constraint_('A','C')13:05: 4.92 x_('A','C')13:05_0 
   + 0.72 x_('A','C')13:05_f + 0.72 x_('A','C')13:05_l <= 135.43
 scale_constraint_('A','C')13:05_f: 2.803 x_('A','C')13:05_0 
   - 0.9 x_('A','C')13:05_f >= 0
 scale_constraint_('A','C')13:05_l: 1.367 x_('A','C')13:05_0 
   - 0.9 x_('A','C')13:05_l >= 0
 capacity_constraint_('A','B')22:45: 1.2 x_('A','B')22:45_f 
   + x_('A','B')22:45_l <= 187
 balance_constraint_('A','B')22:45: 4.92 x_('A','B')22:45_0 
   + 0.72 x_('A','B')22:45_f + 0.72 x_('A','B')22:45_l <= 159.14
 scale_constraint_('A','B')22:45_f: 2.671 x_('A','B')22:45_0 
   - 0.9 x_('A','B')22:45_f >= 0
 scale_constraint_('A','B')22:45_l: 1.303 x_('A','B')22:45_0 
   - 0.9 x_('A','B')22:45_l >= 0
 capacity_constraint_('B','C')9:05: 1.2 x_('B','C')9:05_f 
   + x_('B','C')9:05_l <= 187
 balance_constraint_('B','C')9:05: 3.7 x_('B','C')9:05_0 
   + 0.9 x_('B','C')9:05_f + 0.9 x_('B','C')9:05_l <= 20.73
 scale_constraint_('B','C')9:05_f: 1.864 x_('B','C')9:05_0 
   - 2 x_('B','C')9:05_f >= 0
 scale_constraint_('B','C')9:05_l: x_('B','C')9:05_0 - 2 x_('B','C')9:05_l 
   >= 0
 capacity_constraint_('B','C')15:40: 1.2 x_('B','C')15:40_f 
   + x_('B','C')15:40_l <= 187
 balance_constraint_('B','C')15:40: 3.7 x_('B','C')15:40_0 
   + 0.9 x_('B','C')15:40_f + 0.9 x_('B','C')15:40_l <= 14.96
 scale_constraint_('B','C')15:40_f: 3.079 x_('B','C')15:40_0 
   - 2 x_('B','C')15:40_f >= 0
 scale_constraint_('B','C')15:40_l: 1.652 x_('B','C')15:40_0 
   - 2 x_('B','C')15:40_l >= 0
END

